Li2 Co2 O4                              
   1.00000000000000     
     4.8984300718678453    0.0000000000000000    0.2705977767281335
     0.0000000000000000    2.8323069505824328    0.0000000000000000
    -1.8927227119346097    0.0000000000000000    4.6120811848784804
   Li   Co   O 
     2     2     4
Direct
  0.0000000000000000  0.5000000000000000  0.5000000000000000
  0.5000000120000010  0.0000000000000000  0.5000000109999974
  0.0000000000000000  0.0000000000000000  0.0000000000000000
  0.5000000000000000  0.5000000000000000  0.0000000000000000
  0.2604741744374479  0.0000000000000000  0.7814590985557857
  0.7395258965625544  0.0000000000000000  0.2185419234442136
  0.7604741304374443  0.5000000000000000  0.7814590985557857
  0.2395258425625570  0.5000000000000000  0.2185419234442136
 
  0.00000000E+00  0.00000000E+00  0.00000000E+00
  0.00000000E+00  0.00000000E+00  0.00000000E+00
  0.00000000E+00  0.00000000E+00  0.00000000E+00
  0.00000000E+00  0.00000000E+00  0.00000000E+00
  0.00000000E+00  0.00000000E+00  0.00000000E+00
  0.00000000E+00  0.00000000E+00  0.00000000E+00
  0.00000000E+00  0.00000000E+00  0.00000000E+00
  0.00000000E+00  0.00000000E+00  0.00000000E+00
