Li3 Co3 O6                              
   1.00000000000000     
     2.9436693501045106    0.0000000000000000    0.0000000000000000
    -1.4718346750522553    2.5492925600287291    0.0000000000000000
     0.0000000000000000   -0.0000000000000001   14.4580655416515977
   Li   Co   O 
     3     3     6
Direct
  0.0000000000000000  0.0000000000000000  0.0000000000000000 Li 1.0 2.0
  0.6666669999999968  0.3333330000000032  0.3333330000000032 Li 1.0 2.0
  0.3333330000000032  0.6666669999999968  0.6666669999999968 Li 1.0 2.0
  0.3333330000000032  0.6666669999999968  0.1666669999999968 Co 3.0 4.0
  0.0000000000000000  0.0000000000000000  0.5000000000000000 Co 3.0 4.0
  0.6666669999999968  0.3333330000000032  0.8333330000000032 Co 3.0 4.0
  0.0000000000000000  0.0000000000000000  0.2426888475484930 O  -2.0 -5.0 -8.0
  0.6666669999999968  0.3333330000000032  0.0906441524515103 O  -2.0 -5.0 -8.0
  0.6666669999999968  0.3333330000000032  0.5760218475484962 O  -2.0 -5.0 -8.0
  0.3333330000000032  0.6666669999999968  0.4239781524515038 O  -2.0 -5.0 -8.0
  0.3333330000000032  0.6666669999999968  0.9093558475484897 O  -2.0 -5.0 -8.0
  0.0000000000000000  0.0000000000000000  0.7573111524515070 O  -2.0 -5.0 -8.0
