Li1 Co1 O2
1.0
4.773875 -1.415670 0.000000
4.773875 1.415670 0.000000
4.354064 0.000000 2.415808
Li Co O
1 1 2
direct
0.500000 0.500000 0.500000 Li
0.000000 0.000000 0.000000 Co
0.260365 0.260365 0.260365 O
0.739635 0.739635 0.739635 O
